3 5 2
3 2 1 117 2 125 2 4 140 2 130 2 4 150 5 160
3 2 1 214 3 150 2 3 55 2 66 2 5 78 3 65
3 2 1 87 2 62 2 4 70 3 80 2 4 190 5 100
0 3 5 7 9 14
15 0 3 5 8 12
13 15 0 3 6 10
11 13 15 0 4 8
7 9 11 13 0 5
4 6 8 10 13 0